6924
135,50,137,132,65,85,142,18,75,26,146,56,126,33,105,111,52,93,35,96,30,34,7,84,8,89,124,97,143,100,5,107,95,82,103,98,1,87,76,73,48,63,113,10,94,88,121,79,59,16,133,15,78,21,3,62,149,125,22,104,4,150,115,44,64,112,136,71,45,128,68,119,91,106,13,74,123,145,144,147,49,72,80,14,122,77,131,32,23,38,116,101,39,57,41,129,31,27,117,140,60,66,17,130,148,11,61,36,69,127,118,24,12,53,40,139,47,120,42,9,28,6,37,2,19,99,114,102,108,29,81,110,25,20,51,109,43,67,134,138,54,92,46,90,83,141,55,58,86,70,135
